32	0

0	1	2
10	1	3
5	1	4
4	1	5
5	1	6
7	1	7
8	1	8
4	1	9
5	1	10
10	1	11
4	1	12
6	1	13
4	1	14
3	1	15
7	1	16
7	1	17
2	1	18
6	1	19
3	1	20
5	1	21
3	1	22
1	2	23	24
1	1	25
7	1	25
1	1	26
5	1	27
6	1	28
2	1	29
2	1	30
8	1	31
2	1	32
0	0
